
n_res = 6;
rcap = [83, 77, 74, 81, 707, 804];
rtype = [1, 1, 1, 1, 2, 2];
n_tasks = 50;
modes =  [{1, 2, 3}, {4, 5, 6}, {7, 8, 9}, {10, 11, 12}, {13, 14, 15}, {16, 17, 18}, {19, 20, 21}, {22, 23, 24}, {25, 26, 27}, {28, 29, 30}, {31, 32, 33}, {34, 35, 36}, {37, 38, 39}, {40, 41, 42}, {43, 44, 45}, {46, 47, 48}, {49, 50, 51}, {52, 53, 54}, {55, 56, 57}, {58, 59, 60}, {61, 62, 63}, {64, 65, 66}, {67, 68, 69}, {70, 71, 72}, {73, 74, 75}, {76, 77, 78}, {79, 80, 81}, {82, 83, 84}, {85, 86, 87}, {88, 89, 90}, {91, 92, 93}, {94, 95, 96}, {97, 98, 99}, {100, 101, 102}, {103, 104, 105}, {106, 107, 108}, {109, 110, 111}, {112, 113, 114}, {115, 116, 117}, {118, 119, 120}, {121, 122, 123}, {124, 125, 126}, {127, 128, 129}, {130, 131, 132}, {133, 134, 135}, {136, 137, 138}, {139, 140, 141}, {142, 143, 144}, {145, 146, 147}, {148, 149, 150}];
succ =  [{13, 4}, {13, 4}, {21, 16, 14, 13, 11, 10}, {21, 11, 9, 8}, {21, 11, 9, 8}, {21, 12, 8}, {21, 12, 8}, {26, 25, 19, 16, 15, 14}, {15, 14, 12}, {26, 18, 17, 12}, {26, 25, 19, 17, 15}, {31, 28, 25, 24, 22, 20}, {31, 28, 24, 22, 20}, {31, 22, 17}, {28, 18}, {32, 28, 24, 20}, {34, 32, 30, 28, 24, 23}, {32, 24, 20}, {32, 28, 20}, {34, 30, 27, 23}, {34, 30, 23}, {40, 38, 32, 30, 29, 27}, {40, 39, 38, 35, 29}, {40, 38, 35, 33, 27}, {40, 39, 38, 35, 29}, {40, 39, 37, 33, 32}, {42, 39, 37, 36}, {42, 39, 38, 36}, {37, 36, 33}, {39, 36, 33}, {33, 32}, {45, 42, 36}, {50, 45, 44, 43, 42, 41}, {42, 36}, {36}, {50, 44, 43, 41}, {50, 45, 43, 41}, {50, 45, 43, 41}, {49, 48, 45, 44, 43}, {50, 47, 41}, {49, 48, 46}, {48, 46}, {47}, {47}, {46}, {}, {}, {}, {}, {}];
n_opt = 150;
dur = [8, 11, 28, 12, 23, 26, 4, 14, 15, 2, 13, 20, 1, 10, 13, 2, 20, 21, 2, 12, 24, 22, 23, 26, 3, 16, 20, 11, 12, 24, 19, 20, 28, 16, 25, 26, 20, 21, 23, 8, 14, 22, 4, 6, 10, 19, 22, 25, 15, 16, 22, 6, 8, 22, 3, 18, 28, 21, 22, 28, 1, 6, 7, 5, 11, 23, 5, 23, 26, 13, 16, 23, 12, 20, 27, 19, 23, 30, 4, 12, 18, 12, 19, 21, 6, 18, 28, 14, 22, 30, 23, 27, 30, 5, 7, 11, 3, 12, 24, 2, 16, 28, 12, 29, 30, 13, 18, 22, 2, 3, 28, 2, 13, 25, 9, 27, 28, 14, 17, 29, 2, 5, 13, 7, 21, 25, 9, 12, 25, 2, 9, 20, 21, 24, 27, 4, 19, 25, 15, 19, 28, 3, 9, 29, 3, 19, 22, 8, 17, 28];
rreq = [|1, 1, 1, 23, 21, 21, 15, 8, 4, 13, 12, 10, 1, 1, 1, 26, 13, 12, 25, 22, 22, 16, 13, 9, 27, 21, 20, 16, 15, 14, 8, 5, 1, 14, 12, 11, 21, 16, 15, 20, 14, 3, 16, 15, 12, 29, 22, 22, 12, 10, 5, 23, 21, 16, 19, 14, 7, 21, 20, 19, 28, 14, 10, 27, 25, 25, 24, 13, 5, 11, 10, 10, 5, 3, 1, 17, 17, 17, 19, 11, 3, 21, 21, 21, 19, 10, 7, 28, 20, 15, 25, 25, 20, 8, 7, 5, 24, 23, 22, 11, 8, 6, 23, 18, 17, 24, 22, 20, 17, 16, 15, 15, 9, 6, 21, 20, 16, 19, 12, 7, 16, 14, 14, 27, 21, 20, 22, 17, 11, 23, 21, 16, 13, 11, 11, 8, 7, 6, 14, 14, 14, 19, 17, 17, 28, 18, 12, 29, 25, 23
 |28, 18, 10, 10, 5, 1, 19, 15, 9, 23, 20, 19, 30, 18, 14, 14, 12, 9, 20, 19, 18, 19, 18, 16, 27, 25, 24, 23, 22, 22, 27, 16, 4, 14, 11, 10, 3, 3, 2, 2, 2, 2, 18, 13, 9, 13, 9, 4, 25, 16, 14, 15, 11, 4, 29, 21, 15, 24, 19, 18, 12, 12, 12, 9, 8, 7, 27, 25, 25, 15, 13, 5, 16, 15, 15, 8, 3, 2, 28, 26, 26, 13, 7, 2, 24, 22, 17, 24, 15, 14, 25, 14, 8, 13, 11, 11, 22, 10, 9, 28, 25, 21, 23, 15, 11, 27, 25, 19, 13, 12, 9, 26, 23, 22, 21, 21, 11, 28, 21, 13, 26, 22, 18, 16, 9, 8, 19, 15, 7, 15, 14, 10, 18, 14, 1, 25, 23, 13, 17, 10, 5, 27, 26, 25, 13, 11, 11, 6, 6, 6
 |16, 16, 16, 17, 13, 12, 19, 18, 17, 15, 14, 13, 15, 14, 14, 26, 25, 22, 17, 11, 5, 11, 7, 4, 17, 12, 9, 19, 16, 12, 17, 16, 13, 13, 10, 6, 22, 20, 16, 23, 15, 15, 15, 13, 8, 7, 6, 5, 25, 20, 12, 21, 19, 10, 29, 24, 24, 19, 17, 10, 24, 21, 12, 19, 14, 10, 17, 13, 10, 22, 15, 12, 9, 5, 4, 13, 10, 7, 10, 8, 6, 21, 15, 12, 7, 6, 6, 29, 21, 13, 25, 23, 22, 29, 28, 28, 23, 19, 12, 28, 25, 24, 20, 15, 11, 23, 14, 7, 29, 27, 27, 28, 23, 21, 20, 14, 8, 19, 19, 17, 27, 21, 19, 19, 14, 4, 13, 8, 7, 17, 10, 4, 18, 17, 8, 14, 11, 11, 3, 2, 2, 10, 10, 10, 21, 21, 18, 10, 10, 10
 |22, 22, 22, 30, 29, 27, 14, 8, 4, 16, 6, 2, 12, 6, 3, 30, 28, 28, 18, 15, 15, 21, 13, 9, 16, 10, 8, 21, 17, 15, 22, 19, 11, 14, 13, 13, 13, 6, 2, 17, 13, 8, 26, 20, 17, 10, 8, 7, 12, 10, 9, 17, 17, 17, 11, 9, 3, 17, 15, 12, 15, 12, 8, 24, 11, 2, 18, 13, 8, 14, 13, 10, 20, 20, 19, 22, 22, 16, 10, 5, 5, 30, 28, 26, 28, 20, 12, 9, 4, 3, 27, 24, 24, 24, 17, 11, 25, 24, 21, 18, 16, 14, 7, 6, 3, 12, 10, 10, 23, 23, 23, 18, 11, 9, 21, 18, 7, 18, 14, 13, 4, 3, 3, 28, 26, 26, 20, 12, 6, 23, 19, 10, 20, 19, 18, 22, 18, 13, 29, 29, 29, 23, 15, 3, 19, 11, 9, 22, 20, 9
 |28, 21, 6, 25, 16, 9, 29, 24, 24, 21, 21, 10, 7, 4, 2, 18, 17, 12, 27, 26, 24, 29, 26, 23, 6, 6, 6, 20, 16, 13, 9, 9, 9, 30, 12, 8, 28, 26, 23, 15, 13, 9, 18, 15, 11, 12, 11, 8, 18, 8, 6, 13, 7, 4, 22, 15, 12, 12, 10, 7, 21, 15, 9, 23, 21, 11, 17, 14, 12, 26, 21, 15, 25, 25, 23, 20, 19, 19, 23, 12, 6, 15, 7, 2, 18, 15, 13, 14, 10, 7, 19, 16, 14, 21, 13, 7, 9, 9, 9, 19, 14, 8, 22, 14, 10, 16, 14, 4, 21, 19, 18, 5, 4, 3, 9, 7, 2, 29, 29, 29, 7, 4, 3, 21, 20, 12, 18, 16, 5, 3, 2, 2, 6, 3, 2, 21, 16, 6, 18, 10, 4, 20, 8, 6, 8, 7, 7, 25, 21, 14
 |20, 20, 20, 6, 6, 6, 18, 13, 11, 24, 17, 8, 16, 16, 10, 18, 13, 10, 18, 15, 7, 15, 13, 13, 10, 10, 10, 16, 12, 5, 30, 20, 15, 16, 16, 16, 12, 12, 12, 12, 7, 4, 14, 14, 14, 25, 20, 18, 19, 15, 13, 24, 24, 21, 29, 29, 29, 21, 20, 18, 20, 20, 18, 21, 11, 5, 28, 23, 22, 24, 22, 18, 4, 4, 4, 15, 12, 7, 27, 27, 26, 10, 7, 6, 13, 12, 10, 28, 22, 18, 12, 11, 9, 16, 13, 9, 8, 7, 7, 16, 13, 12, 25, 22, 22, 26, 18, 14, 27, 25, 25, 26, 20, 14, 3, 3, 3, 18, 13, 6, 23, 23, 16, 23, 22, 22, 19, 8, 7, 19, 12, 5, 26, 25, 25, 29, 17, 17, 9, 7, 7, 28, 25, 21, 14, 12, 12, 22, 22, 20|];